; benchmark generated from python API
(set-info :status unknown)
(declare-fun x_epoch () Int)
(declare-fun y_epoch () Int)
(declare-fun x_plus_epoch () Int)
(declare-fun x_plus_month () Int)
(declare-fun x_plus_year () Int)
(declare-fun x_plus_day () Int)
(assert
 (>= x_epoch (- 36584)))
(assert
 (<= x_epoch 36829))
(assert
 (>= y_epoch (- 36584)))
(assert
 (<= y_epoch 36829))
(assert
 (= x_epoch 7990))
(assert
 (>= x_plus_epoch (- 36584)))
(assert
 (<= x_plus_epoch 36829))
(assert
 (let (($x358 (= x_plus_month 11)))
 (let (($x408 (= x_plus_month 9)))
 (let (($x233 (= x_plus_month 6)))
 (let (($x354 (= x_plus_month 4)))
 (let ((?x845 (ite (or $x354 $x233 $x408 $x358) 30 31)))
 (let (($x657 (= (mod x_plus_year 400) 0)))
 (let (($x2166 (= (mod x_plus_year 4) 0)))
 (let (($x776 (or (and $x2166 (and (distinct (mod x_plus_year 100) 0) true)) $x657)))
 (let (($x3150 (= x_plus_month 2)))
 (let (($x227 (>= x_plus_day 1)))
 (let (($x1358 (<= x_plus_month 12)))
 (let (($x205 (>= x_plus_month 1)))
 (let (($x315 (<= x_plus_year 2100)))
 (let (($x126 (>= x_plus_year 1900)))
 (and $x126 $x315 $x205 $x1358 $x227 (<= x_plus_day (ite $x3150 (ite $x776 29 28) ?x845))))))))))))))))))
(assert
 (let (($x29 (or (and (= (mod 2000 4) 0) (and (distinct (mod 2000 100) 0) true)) (= (mod 2000 400) 0))))
 (let ((?x36 (ite (= 3 2) (ite $x29 31 31) (ite (= 3 1) (ite $x29 0 0) 0))))
 (let ((?x40 (ite $x29 60 59)))
 (let ((?x41 (ite (= 3 3) ?x40 ?x36)))
 (let ((?x46 (ite (= 3 4) (ite $x29 91 90) ?x41)))
 (let ((?x52 (ite (= 3 5) (ite $x29 121 120) ?x46)))
 (let ((?x58 (ite (= 3 6) (ite $x29 152 151) ?x52)))
 (let ((?x64 (ite (= 3 7) (ite $x29 182 181) ?x58)))
 (let ((?x70 (ite (= 3 8) (ite $x29 213 212) ?x64)))
 (let ((?x76 (ite (= 3 9) (ite $x29 244 243) ?x70)))
 (let ((?x82 (ite (= 3 10) (ite $x29 274 273) ?x76)))
 (let ((?x88 (ite (= 3 11) (ite $x29 305 304) ?x82)))
 (let ((?x16 (- (+ (* 365 (- 2000 1)) (div (- 2000 1) 4)) (div (- 2000 1) 100))))
 (let ((?x95 (+ (+ ?x16 (div (- 2000 1) 400)) (ite (= 3 12) (ite $x29 335 334) ?x88))))
 (let ((?x97 (+ ?x95 (- 1 1))))
 (let (($x657 (= (mod x_plus_year 400) 0)))
 (let (($x2166 (= (mod x_plus_year 4) 0)))
 (let (($x776 (or (and $x2166 (and (distinct (mod x_plus_year 100) 0) true)) $x657)))
 (let (($x618 (= 2 x_plus_month)))
 (let ((?x287 (ite $x618 (ite $x776 31 31) (ite (= 1 x_plus_month) (ite $x776 0 0) 0))))
 (let (($x146 (= 3 x_plus_month)))
 (let (($x867 (= 4 x_plus_month)))
 (let ((?x177 (ite $x867 (ite $x776 91 90) (ite $x146 (ite $x776 60 59) ?x287))))
 (let (($x226 (= 5 x_plus_month)))
 (let (($x433 (= 6 x_plus_month)))
 (let ((?x323 (ite $x433 (ite $x776 152 151) (ite $x226 (ite $x776 121 120) ?x177))))
 (let (($x490 (= 7 x_plus_month)))
 (let (($x223 (= 8 x_plus_month)))
 (let ((?x781 (ite $x223 (ite $x776 213 212) (ite $x490 (ite $x776 182 181) ?x323))))
 (let (($x300 (= 9 x_plus_month)))
 (let (($x327 (= 10 x_plus_month)))
 (let ((?x708 (ite $x327 (ite $x776 274 273) (ite $x300 (ite $x776 244 243) ?x781))))
 (let (($x340 (= 11 x_plus_month)))
 (let (($x311 (= 12 x_plus_month)))
 (let ((?x828 (ite $x311 (ite $x776 335 334) (ite $x340 (ite $x776 305 304) ?x708))))
 (let ((?x224 (+ (* 365 (- x_plus_year 1)) (div (- x_plus_year 1) 4))))
 (let ((?x349 (+ (- ?x224 (div (- x_plus_year 1) 100)) (div (- x_plus_year 1) 400))))
 (= x_plus_epoch (- (+ (+ ?x349 ?x828) (- x_plus_day 1)) ?x97))))))))))))))))))))))))))))))))))))))))
(assert
 (let (($x29 (or (and (= (mod 2000 4) 0) (and (distinct (mod 2000 100) 0) true)) (= (mod 2000 400) 0))))
 (let ((?x36 (ite (= 3 2) (ite $x29 31 31) (ite (= 3 1) (ite $x29 0 0) 0))))
 (let ((?x40 (ite $x29 60 59)))
 (let ((?x41 (ite (= 3 3) ?x40 ?x36)))
 (let ((?x46 (ite (= 3 4) (ite $x29 91 90) ?x41)))
 (let ((?x52 (ite (= 3 5) (ite $x29 121 120) ?x46)))
 (let ((?x58 (ite (= 3 6) (ite $x29 152 151) ?x52)))
 (let ((?x64 (ite (= 3 7) (ite $x29 182 181) ?x58)))
 (let ((?x70 (ite (= 3 8) (ite $x29 213 212) ?x64)))
 (let ((?x76 (ite (= 3 9) (ite $x29 244 243) ?x70)))
 (let ((?x82 (ite (= 3 10) (ite $x29 274 273) ?x76)))
 (let ((?x88 (ite (= 3 11) (ite $x29 305 304) ?x82)))
 (let ((?x16 (- (+ (* 365 (- 2000 1)) (div (- 2000 1) 4)) (div (- 2000 1) 100))))
 (let ((?x95 (+ (+ ?x16 (div (- 2000 1) 400)) (ite (= 3 12) (ite $x29 335 334) ?x88))))
 (let ((?x97 (+ ?x95 (- 1 1))))
 (let ((?x2924 (+ x_epoch ?x97)))
 (let ((?x727 (mod ?x2924 146097)))
 (let ((?x1551 (div ?x727 36524)))
 (let ((?x829 (ite (<= 4 ?x1551) 3 ?x1551)))
 (let ((?x661 (- ?x727 (* ?x829 36524))))
 (let ((?x522 (mod ?x661 1461)))
 (let ((?x268 (div ?x522 365)))
 (let ((?x530 (ite (<= 4 ?x268) 3 ?x268)))
 (let ((?x2487 (+ (+ (* (div ?x2924 146097) 400) (* ?x829 100)) (* (div ?x661 1461) 4))))
 (let ((?x2561 (+ (+ ?x2487 ?x530) 1)))
 (let (($x506 (or (and (= (mod ?x2561 4) 0) (and (distinct (mod ?x2561 100) 0) true)) (= (mod ?x2561 400) 0))))
 (let ((?x1830 (- ?x522 (* ?x530 365))))
 (let ((?x1481 (ite $x506 31 31)))
 (let (($x843 (>= ?x1830 ?x1481)))
 (let ((?x2703 (ite $x843 (+ (- ?x1830 ?x1481) 1) (+ (- ?x1830 (ite $x506 0 0)) 1))))
 (let ((?x1769 (ite $x506 60 59)))
 (let (($x696 (>= ?x1830 ?x1769)))
 (let ((?x1628 (ite $x506 91 90)))
 (let (($x110 (>= ?x1830 ?x1628)))
 (let ((?x487 (ite $x110 (+ (- ?x1830 ?x1628) 1) (ite $x696 (+ (- ?x1830 ?x1769) 1) ?x2703))))
 (let ((?x3177 (ite $x506 121 120)))
 (let (($x3167 (>= ?x1830 ?x3177)))
 (let ((?x2961 (ite $x506 152 151)))
 (let (($x2853 (>= ?x1830 ?x2961)))
 (let ((?x366 (ite $x2853 (+ (- ?x1830 ?x2961) 1) (ite $x3167 (+ (- ?x1830 ?x3177) 1) ?x487))))
 (let ((?x112 (ite $x506 182 181)))
 (let (($x2284 (>= ?x1830 ?x112)))
 (let ((?x3086 (ite $x506 213 212)))
 (let (($x795 (>= ?x1830 ?x3086)))
 (let ((?x1316 (ite $x795 (+ (- ?x1830 ?x3086) 1) (ite $x2284 (+ (- ?x1830 ?x112) 1) ?x366))))
 (let ((?x2707 (ite $x506 244 243)))
 (let (($x1828 (>= ?x1830 ?x2707)))
 (let ((?x1221 (ite $x506 274 273)))
 (let (($x1528 (>= ?x1830 ?x1221)))
 (let ((?x2530 (ite $x1528 (+ (- ?x1830 ?x1221) 1) (ite $x1828 (+ (- ?x1830 ?x2707) 1) ?x1316))))
 (let ((?x415 (ite $x506 305 304)))
 (let (($x3340 (>= ?x1830 ?x415)))
 (let ((?x629 (ite $x506 335 334)))
 (let (($x1422 (>= ?x1830 ?x629)))
 (let ((?x778 (ite $x1422 (+ (- ?x1830 ?x629) 1) (ite $x3340 (+ (- ?x1830 ?x415) 1) ?x2530))))
 (let ((?x432 (* 0 12)))
 (let ((?x3043 (+ ?x432 13)))
 (let ((?x2157 (ite $x3167 5 (ite $x110 4 (ite $x696 3 (ite $x843 2 1))))))
 (let ((?x2411 (ite $x1828 9 (ite $x795 8 (ite $x2284 7 (ite $x2853 6 ?x2157))))))
 (let ((?x2610 (ite $x1422 12 (ite $x3340 11 (ite $x1528 10 ?x2411)))))
 (let ((?x2858 (+ ?x2610 ?x3043)))
 (let ((?x3343 (- ?x2858 1)))
 (let ((?x1936 (+ (mod ?x3343 12) 1)))
 (let ((?x1033 (ite (or (= ?x1936 4) (= ?x1936 6) (= ?x1936 9) (= ?x1936 11)) 30 31)))
 (let (($x1292 (and (= (mod (+ ?x2561 (+ 0 (div ?x3343 12))) 4) 0) (and (distinct (mod (+ ?x2561 (+ 0 (div ?x3343 12))) 100) 0) true))))
 (let (($x2516 (or $x1292 (= (mod (+ ?x2561 (+ 0 (div ?x3343 12))) 400) 0))))
 (let ((?x1689 (ite (= ?x1936 2) (ite $x2516 29 28) ?x1033)))
 (let (($x741 (> 1 ?x778)))
 (let ((?x3276 (ite $x741 1 (ite (> ?x778 ?x1689) ?x1689 ?x778))))
 (let ((?x977 (ite (> 1 ?x3276) 1 (ite (> ?x3276 ?x1689) ?x1689 ?x3276))))
 (let ((?x2463 (ite (= 2 ?x1936) (ite $x2516 31 31) (ite (= 1 ?x1936) (ite $x2516 0 0) 0))))
 (let ((?x1388 (ite (= 4 ?x1936) (ite $x2516 91 90) (ite (= 3 ?x1936) (ite $x2516 60 59) ?x2463))))
 (let ((?x197 (ite (= 6 ?x1936) (ite $x2516 152 151) (ite (= 5 ?x1936) (ite $x2516 121 120) ?x1388))))
 (let ((?x1985 (ite (= 8 ?x1936) (ite $x2516 213 212) (ite (= 7 ?x1936) (ite $x2516 182 181) ?x197))))
 (let ((?x928 (ite (= 10 ?x1936) (ite $x2516 274 273) (ite (= 9 ?x1936) (ite $x2516 244 243) ?x1985))))
 (let ((?x995 (ite (= 12 ?x1936) (ite $x2516 335 334) (ite (= 11 ?x1936) (ite $x2516 305 304) ?x928))))
 (let ((?x2586 (+ (* 365 (- (+ ?x2561 (+ 0 (div ?x3343 12))) 1)) (div (- (+ ?x2561 (+ 0 (div ?x3343 12))) 1) 4))))
 (let ((?x1455 (+ (- ?x2586 (div (- (+ ?x2561 (+ 0 (div ?x3343 12))) 1) 100)) (div (- (+ ?x2561 (+ 0 (div ?x3343 12))) 1) 400))))
 (let ((?x2280 (+ (+ (- (+ (+ ?x1455 ?x995) (- ?x977 1)) ?x97) 40) ?x97)))
 (let ((?x2836 (mod ?x2280 146097)))
 (let ((?x1335 (div ?x2836 36524)))
 (let ((?x2835 (ite (<= 4 ?x1335) 3 ?x1335)))
 (let ((?x2253 (- ?x2836 (* ?x2835 36524))))
 (let ((?x2959 (mod ?x2253 1461)))
 (let ((?x1712 (div ?x2959 365)))
 (let ((?x2424 (ite (<= 4 ?x1712) 3 ?x1712)))
 (let ((?x3181 (+ (+ (* (div ?x2280 146097) 400) (* ?x2835 100)) (* (div ?x2253 1461) 4))))
 (let ((?x2859 (+ (+ ?x3181 ?x2424) 1)))
 (let ((?x2358 (+ 0 (div ?x3343 12))))
 (let ((?x1040 (+ ?x2561 ?x2358)))
 (let (($x1149 (= 40 0)))
 (let ((?x3922 (ite $x1149 ?x1040 ?x2859)))
 (= x_plus_year ?x3922))))))))))))))))))))))))))))))))))))))))))))))))))))))))))))))))))))))))))))))))))))))))))))))
(assert
 (let (($x29 (or (and (= (mod 2000 4) 0) (and (distinct (mod 2000 100) 0) true)) (= (mod 2000 400) 0))))
 (let ((?x36 (ite (= 3 2) (ite $x29 31 31) (ite (= 3 1) (ite $x29 0 0) 0))))
 (let ((?x40 (ite $x29 60 59)))
 (let ((?x41 (ite (= 3 3) ?x40 ?x36)))
 (let ((?x46 (ite (= 3 4) (ite $x29 91 90) ?x41)))
 (let ((?x52 (ite (= 3 5) (ite $x29 121 120) ?x46)))
 (let ((?x58 (ite (= 3 6) (ite $x29 152 151) ?x52)))
 (let ((?x64 (ite (= 3 7) (ite $x29 182 181) ?x58)))
 (let ((?x70 (ite (= 3 8) (ite $x29 213 212) ?x64)))
 (let ((?x76 (ite (= 3 9) (ite $x29 244 243) ?x70)))
 (let ((?x82 (ite (= 3 10) (ite $x29 274 273) ?x76)))
 (let ((?x88 (ite (= 3 11) (ite $x29 305 304) ?x82)))
 (let ((?x16 (- (+ (* 365 (- 2000 1)) (div (- 2000 1) 4)) (div (- 2000 1) 100))))
 (let ((?x95 (+ (+ ?x16 (div (- 2000 1) 400)) (ite (= 3 12) (ite $x29 335 334) ?x88))))
 (let ((?x97 (+ ?x95 (- 1 1))))
 (let ((?x2924 (+ x_epoch ?x97)))
 (let ((?x727 (mod ?x2924 146097)))
 (let ((?x1551 (div ?x727 36524)))
 (let ((?x829 (ite (<= 4 ?x1551) 3 ?x1551)))
 (let ((?x661 (- ?x727 (* ?x829 36524))))
 (let ((?x522 (mod ?x661 1461)))
 (let ((?x268 (div ?x522 365)))
 (let ((?x530 (ite (<= 4 ?x268) 3 ?x268)))
 (let ((?x2487 (+ (+ (* (div ?x2924 146097) 400) (* ?x829 100)) (* (div ?x661 1461) 4))))
 (let ((?x2561 (+ (+ ?x2487 ?x530) 1)))
 (let (($x506 (or (and (= (mod ?x2561 4) 0) (and (distinct (mod ?x2561 100) 0) true)) (= (mod ?x2561 400) 0))))
 (let ((?x1830 (- ?x522 (* ?x530 365))))
 (let ((?x1481 (ite $x506 31 31)))
 (let (($x843 (>= ?x1830 ?x1481)))
 (let ((?x2703 (ite $x843 (+ (- ?x1830 ?x1481) 1) (+ (- ?x1830 (ite $x506 0 0)) 1))))
 (let ((?x1769 (ite $x506 60 59)))
 (let (($x696 (>= ?x1830 ?x1769)))
 (let ((?x1628 (ite $x506 91 90)))
 (let (($x110 (>= ?x1830 ?x1628)))
 (let ((?x487 (ite $x110 (+ (- ?x1830 ?x1628) 1) (ite $x696 (+ (- ?x1830 ?x1769) 1) ?x2703))))
 (let ((?x3177 (ite $x506 121 120)))
 (let (($x3167 (>= ?x1830 ?x3177)))
 (let ((?x2961 (ite $x506 152 151)))
 (let (($x2853 (>= ?x1830 ?x2961)))
 (let ((?x366 (ite $x2853 (+ (- ?x1830 ?x2961) 1) (ite $x3167 (+ (- ?x1830 ?x3177) 1) ?x487))))
 (let ((?x112 (ite $x506 182 181)))
 (let (($x2284 (>= ?x1830 ?x112)))
 (let ((?x3086 (ite $x506 213 212)))
 (let (($x795 (>= ?x1830 ?x3086)))
 (let ((?x1316 (ite $x795 (+ (- ?x1830 ?x3086) 1) (ite $x2284 (+ (- ?x1830 ?x112) 1) ?x366))))
 (let ((?x2707 (ite $x506 244 243)))
 (let (($x1828 (>= ?x1830 ?x2707)))
 (let ((?x1221 (ite $x506 274 273)))
 (let (($x1528 (>= ?x1830 ?x1221)))
 (let ((?x2530 (ite $x1528 (+ (- ?x1830 ?x1221) 1) (ite $x1828 (+ (- ?x1830 ?x2707) 1) ?x1316))))
 (let ((?x415 (ite $x506 305 304)))
 (let (($x3340 (>= ?x1830 ?x415)))
 (let ((?x629 (ite $x506 335 334)))
 (let (($x1422 (>= ?x1830 ?x629)))
 (let ((?x778 (ite $x1422 (+ (- ?x1830 ?x629) 1) (ite $x3340 (+ (- ?x1830 ?x415) 1) ?x2530))))
 (let ((?x432 (* 0 12)))
 (let ((?x3043 (+ ?x432 13)))
 (let ((?x2157 (ite $x3167 5 (ite $x110 4 (ite $x696 3 (ite $x843 2 1))))))
 (let ((?x2411 (ite $x1828 9 (ite $x795 8 (ite $x2284 7 (ite $x2853 6 ?x2157))))))
 (let ((?x2610 (ite $x1422 12 (ite $x3340 11 (ite $x1528 10 ?x2411)))))
 (let ((?x2858 (+ ?x2610 ?x3043)))
 (let ((?x3343 (- ?x2858 1)))
 (let ((?x1936 (+ (mod ?x3343 12) 1)))
 (let ((?x1033 (ite (or (= ?x1936 4) (= ?x1936 6) (= ?x1936 9) (= ?x1936 11)) 30 31)))
 (let (($x1292 (and (= (mod (+ ?x2561 (+ 0 (div ?x3343 12))) 4) 0) (and (distinct (mod (+ ?x2561 (+ 0 (div ?x3343 12))) 100) 0) true))))
 (let (($x2516 (or $x1292 (= (mod (+ ?x2561 (+ 0 (div ?x3343 12))) 400) 0))))
 (let ((?x1689 (ite (= ?x1936 2) (ite $x2516 29 28) ?x1033)))
 (let (($x741 (> 1 ?x778)))
 (let ((?x3276 (ite $x741 1 (ite (> ?x778 ?x1689) ?x1689 ?x778))))
 (let ((?x977 (ite (> 1 ?x3276) 1 (ite (> ?x3276 ?x1689) ?x1689 ?x3276))))
 (let ((?x2463 (ite (= 2 ?x1936) (ite $x2516 31 31) (ite (= 1 ?x1936) (ite $x2516 0 0) 0))))
 (let ((?x1388 (ite (= 4 ?x1936) (ite $x2516 91 90) (ite (= 3 ?x1936) (ite $x2516 60 59) ?x2463))))
 (let ((?x197 (ite (= 6 ?x1936) (ite $x2516 152 151) (ite (= 5 ?x1936) (ite $x2516 121 120) ?x1388))))
 (let ((?x1985 (ite (= 8 ?x1936) (ite $x2516 213 212) (ite (= 7 ?x1936) (ite $x2516 182 181) ?x197))))
 (let ((?x928 (ite (= 10 ?x1936) (ite $x2516 274 273) (ite (= 9 ?x1936) (ite $x2516 244 243) ?x1985))))
 (let ((?x995 (ite (= 12 ?x1936) (ite $x2516 335 334) (ite (= 11 ?x1936) (ite $x2516 305 304) ?x928))))
 (let ((?x2586 (+ (* 365 (- (+ ?x2561 (+ 0 (div ?x3343 12))) 1)) (div (- (+ ?x2561 (+ 0 (div ?x3343 12))) 1) 4))))
 (let ((?x1455 (+ (- ?x2586 (div (- (+ ?x2561 (+ 0 (div ?x3343 12))) 1) 100)) (div (- (+ ?x2561 (+ 0 (div ?x3343 12))) 1) 400))))
 (let ((?x2280 (+ (+ (- (+ (+ ?x1455 ?x995) (- ?x977 1)) ?x97) 40) ?x97)))
 (let ((?x2836 (mod ?x2280 146097)))
 (let ((?x1335 (div ?x2836 36524)))
 (let ((?x2835 (ite (<= 4 ?x1335) 3 ?x1335)))
 (let ((?x2253 (- ?x2836 (* ?x2835 36524))))
 (let ((?x2959 (mod ?x2253 1461)))
 (let ((?x1712 (div ?x2959 365)))
 (let ((?x2424 (ite (<= 4 ?x1712) 3 ?x1712)))
 (let ((?x3181 (+ (+ (* (div ?x2280 146097) 400) (* ?x2835 100)) (* (div ?x2253 1461) 4))))
 (let ((?x2859 (+ (+ ?x3181 ?x2424) 1)))
 (let (($x2709 (or (and (= (mod ?x2859 4) 0) (and (distinct (mod ?x2859 100) 0) true)) (= (mod ?x2859 400) 0))))
 (let ((?x1143 (ite $x2709 31 31)))
 (let ((?x3103 (- ?x2959 (* ?x2424 365))))
 (let (($x2473 (>= ?x3103 ?x1143)))
 (let ((?x3193 (ite $x2709 60 59)))
 (let (($x1635 (>= ?x3103 ?x3193)))
 (let ((?x2444 (ite $x2709 91 90)))
 (let (($x4000 (>= ?x3103 ?x2444)))
 (let ((?x2182 (ite $x2709 121 120)))
 (let (($x2244 (>= ?x3103 ?x2182)))
 (let ((?x3998 (ite $x2244 5 (ite $x4000 4 (ite $x1635 3 (ite $x2473 2 1))))))
 (let ((?x4006 (ite $x2709 152 151)))
 (let (($x1550 (>= ?x3103 ?x4006)))
 (let ((?x4009 (ite $x2709 182 181)))
 (let (($x2902 (>= ?x3103 ?x4009)))
 (let ((?x4007 (ite $x2709 213 212)))
 (let (($x1640 (>= ?x3103 ?x4007)))
 (let ((?x4010 (ite $x2709 244 243)))
 (let (($x703 (>= ?x3103 ?x4010)))
 (let ((?x3987 (ite $x703 9 (ite $x1640 8 (ite $x2902 7 (ite $x1550 6 ?x3998))))))
 (let ((?x4011 (ite $x2709 274 273)))
 (let (($x3989 (>= ?x3103 ?x4011)))
 (let ((?x4012 (ite $x2709 305 304)))
 (let (($x3988 (>= ?x3103 ?x4012)))
 (let ((?x4013 (ite $x2709 335 334)))
 (let (($x3196 (>= ?x3103 ?x4013)))
 (let ((?x3976 (ite $x3196 12 (ite $x3988 11 (ite $x3989 10 ?x3987)))))
 (let (($x1149 (= 40 0)))
 (let ((?x3920 (ite $x1149 ?x1936 ?x3976)))
 (= x_plus_month ?x3920)))))))))))))))))))))))))))))))))))))))))))))))))))))))))))))))))))))))))))))))))))))))))))))))))))))))))))))))))))))))
(assert
 (let (($x29 (or (and (= (mod 2000 4) 0) (and (distinct (mod 2000 100) 0) true)) (= (mod 2000 400) 0))))
 (let ((?x36 (ite (= 3 2) (ite $x29 31 31) (ite (= 3 1) (ite $x29 0 0) 0))))
 (let ((?x40 (ite $x29 60 59)))
 (let ((?x41 (ite (= 3 3) ?x40 ?x36)))
 (let ((?x46 (ite (= 3 4) (ite $x29 91 90) ?x41)))
 (let ((?x52 (ite (= 3 5) (ite $x29 121 120) ?x46)))
 (let ((?x58 (ite (= 3 6) (ite $x29 152 151) ?x52)))
 (let ((?x64 (ite (= 3 7) (ite $x29 182 181) ?x58)))
 (let ((?x70 (ite (= 3 8) (ite $x29 213 212) ?x64)))
 (let ((?x76 (ite (= 3 9) (ite $x29 244 243) ?x70)))
 (let ((?x82 (ite (= 3 10) (ite $x29 274 273) ?x76)))
 (let ((?x88 (ite (= 3 11) (ite $x29 305 304) ?x82)))
 (let ((?x16 (- (+ (* 365 (- 2000 1)) (div (- 2000 1) 4)) (div (- 2000 1) 100))))
 (let ((?x95 (+ (+ ?x16 (div (- 2000 1) 400)) (ite (= 3 12) (ite $x29 335 334) ?x88))))
 (let ((?x97 (+ ?x95 (- 1 1))))
 (let ((?x2924 (+ x_epoch ?x97)))
 (let ((?x727 (mod ?x2924 146097)))
 (let ((?x1551 (div ?x727 36524)))
 (let ((?x829 (ite (<= 4 ?x1551) 3 ?x1551)))
 (let ((?x661 (- ?x727 (* ?x829 36524))))
 (let ((?x522 (mod ?x661 1461)))
 (let ((?x268 (div ?x522 365)))
 (let ((?x530 (ite (<= 4 ?x268) 3 ?x268)))
 (let ((?x2487 (+ (+ (* (div ?x2924 146097) 400) (* ?x829 100)) (* (div ?x661 1461) 4))))
 (let ((?x2561 (+ (+ ?x2487 ?x530) 1)))
 (let (($x506 (or (and (= (mod ?x2561 4) 0) (and (distinct (mod ?x2561 100) 0) true)) (= (mod ?x2561 400) 0))))
 (let ((?x1830 (- ?x522 (* ?x530 365))))
 (let ((?x1481 (ite $x506 31 31)))
 (let (($x843 (>= ?x1830 ?x1481)))
 (let ((?x2703 (ite $x843 (+ (- ?x1830 ?x1481) 1) (+ (- ?x1830 (ite $x506 0 0)) 1))))
 (let ((?x1769 (ite $x506 60 59)))
 (let (($x696 (>= ?x1830 ?x1769)))
 (let ((?x1628 (ite $x506 91 90)))
 (let (($x110 (>= ?x1830 ?x1628)))
 (let ((?x487 (ite $x110 (+ (- ?x1830 ?x1628) 1) (ite $x696 (+ (- ?x1830 ?x1769) 1) ?x2703))))
 (let ((?x3177 (ite $x506 121 120)))
 (let (($x3167 (>= ?x1830 ?x3177)))
 (let ((?x2961 (ite $x506 152 151)))
 (let (($x2853 (>= ?x1830 ?x2961)))
 (let ((?x366 (ite $x2853 (+ (- ?x1830 ?x2961) 1) (ite $x3167 (+ (- ?x1830 ?x3177) 1) ?x487))))
 (let ((?x112 (ite $x506 182 181)))
 (let (($x2284 (>= ?x1830 ?x112)))
 (let ((?x3086 (ite $x506 213 212)))
 (let (($x795 (>= ?x1830 ?x3086)))
 (let ((?x1316 (ite $x795 (+ (- ?x1830 ?x3086) 1) (ite $x2284 (+ (- ?x1830 ?x112) 1) ?x366))))
 (let ((?x2707 (ite $x506 244 243)))
 (let (($x1828 (>= ?x1830 ?x2707)))
 (let ((?x1221 (ite $x506 274 273)))
 (let (($x1528 (>= ?x1830 ?x1221)))
 (let ((?x2530 (ite $x1528 (+ (- ?x1830 ?x1221) 1) (ite $x1828 (+ (- ?x1830 ?x2707) 1) ?x1316))))
 (let ((?x415 (ite $x506 305 304)))
 (let (($x3340 (>= ?x1830 ?x415)))
 (let ((?x629 (ite $x506 335 334)))
 (let (($x1422 (>= ?x1830 ?x629)))
 (let ((?x778 (ite $x1422 (+ (- ?x1830 ?x629) 1) (ite $x3340 (+ (- ?x1830 ?x415) 1) ?x2530))))
 (let ((?x432 (* 0 12)))
 (let ((?x3043 (+ ?x432 13)))
 (let ((?x2157 (ite $x3167 5 (ite $x110 4 (ite $x696 3 (ite $x843 2 1))))))
 (let ((?x2411 (ite $x1828 9 (ite $x795 8 (ite $x2284 7 (ite $x2853 6 ?x2157))))))
 (let ((?x2610 (ite $x1422 12 (ite $x3340 11 (ite $x1528 10 ?x2411)))))
 (let ((?x2858 (+ ?x2610 ?x3043)))
 (let ((?x3343 (- ?x2858 1)))
 (let ((?x1936 (+ (mod ?x3343 12) 1)))
 (let ((?x1033 (ite (or (= ?x1936 4) (= ?x1936 6) (= ?x1936 9) (= ?x1936 11)) 30 31)))
 (let (($x1292 (and (= (mod (+ ?x2561 (+ 0 (div ?x3343 12))) 4) 0) (and (distinct (mod (+ ?x2561 (+ 0 (div ?x3343 12))) 100) 0) true))))
 (let (($x2516 (or $x1292 (= (mod (+ ?x2561 (+ 0 (div ?x3343 12))) 400) 0))))
 (let ((?x1689 (ite (= ?x1936 2) (ite $x2516 29 28) ?x1033)))
 (let (($x741 (> 1 ?x778)))
 (let ((?x3276 (ite $x741 1 (ite (> ?x778 ?x1689) ?x1689 ?x778))))
 (let ((?x977 (ite (> 1 ?x3276) 1 (ite (> ?x3276 ?x1689) ?x1689 ?x3276))))
 (let ((?x2463 (ite (= 2 ?x1936) (ite $x2516 31 31) (ite (= 1 ?x1936) (ite $x2516 0 0) 0))))
 (let ((?x1388 (ite (= 4 ?x1936) (ite $x2516 91 90) (ite (= 3 ?x1936) (ite $x2516 60 59) ?x2463))))
 (let ((?x197 (ite (= 6 ?x1936) (ite $x2516 152 151) (ite (= 5 ?x1936) (ite $x2516 121 120) ?x1388))))
 (let ((?x1985 (ite (= 8 ?x1936) (ite $x2516 213 212) (ite (= 7 ?x1936) (ite $x2516 182 181) ?x197))))
 (let ((?x928 (ite (= 10 ?x1936) (ite $x2516 274 273) (ite (= 9 ?x1936) (ite $x2516 244 243) ?x1985))))
 (let ((?x995 (ite (= 12 ?x1936) (ite $x2516 335 334) (ite (= 11 ?x1936) (ite $x2516 305 304) ?x928))))
 (let ((?x2586 (+ (* 365 (- (+ ?x2561 (+ 0 (div ?x3343 12))) 1)) (div (- (+ ?x2561 (+ 0 (div ?x3343 12))) 1) 4))))
 (let ((?x1455 (+ (- ?x2586 (div (- (+ ?x2561 (+ 0 (div ?x3343 12))) 1) 100)) (div (- (+ ?x2561 (+ 0 (div ?x3343 12))) 1) 400))))
 (let ((?x2280 (+ (+ (- (+ (+ ?x1455 ?x995) (- ?x977 1)) ?x97) 40) ?x97)))
 (let ((?x2836 (mod ?x2280 146097)))
 (let ((?x1335 (div ?x2836 36524)))
 (let ((?x2835 (ite (<= 4 ?x1335) 3 ?x1335)))
 (let ((?x2253 (- ?x2836 (* ?x2835 36524))))
 (let ((?x2959 (mod ?x2253 1461)))
 (let ((?x1712 (div ?x2959 365)))
 (let ((?x2424 (ite (<= 4 ?x1712) 3 ?x1712)))
 (let ((?x3181 (+ (+ (* (div ?x2280 146097) 400) (* ?x2835 100)) (* (div ?x2253 1461) 4))))
 (let ((?x2859 (+ (+ ?x3181 ?x2424) 1)))
 (let (($x2709 (or (and (= (mod ?x2859 4) 0) (and (distinct (mod ?x2859 100) 0) true)) (= (mod ?x2859 400) 0))))
 (let ((?x3103 (- ?x2959 (* ?x2424 365))))
 (let ((?x1143 (ite $x2709 31 31)))
 (let (($x2473 (>= ?x3103 ?x1143)))
 (let ((?x3966 (ite $x2473 (+ (- ?x3103 ?x1143) 1) (+ (- ?x3103 (ite $x2709 0 0)) 1))))
 (let ((?x3193 (ite $x2709 60 59)))
 (let (($x1635 (>= ?x3103 ?x3193)))
 (let ((?x2444 (ite $x2709 91 90)))
 (let (($x4000 (>= ?x3103 ?x2444)))
 (let ((?x1360 (ite $x4000 (+ (- ?x3103 ?x2444) 1) (ite $x1635 (+ (- ?x3103 ?x3193) 1) ?x3966))))
 (let ((?x2182 (ite $x2709 121 120)))
 (let (($x2244 (>= ?x3103 ?x2182)))
 (let ((?x4006 (ite $x2709 152 151)))
 (let (($x1550 (>= ?x3103 ?x4006)))
 (let ((?x3947 (ite $x1550 (+ (- ?x3103 ?x4006) 1) (ite $x2244 (+ (- ?x3103 ?x2182) 1) ?x1360))))
 (let ((?x4009 (ite $x2709 182 181)))
 (let (($x2902 (>= ?x3103 ?x4009)))
 (let ((?x4007 (ite $x2709 213 212)))
 (let (($x1640 (>= ?x3103 ?x4007)))
 (let ((?x3936 (ite $x1640 (+ (- ?x3103 ?x4007) 1) (ite $x2902 (+ (- ?x3103 ?x4009) 1) ?x3947))))
 (let ((?x4010 (ite $x2709 244 243)))
 (let (($x703 (>= ?x3103 ?x4010)))
 (let ((?x4011 (ite $x2709 274 273)))
 (let (($x3989 (>= ?x3103 ?x4011)))
 (let ((?x2163 (ite $x3989 (+ (- ?x3103 ?x4011) 1) (ite $x703 (+ (- ?x3103 ?x4010) 1) ?x3936))))
 (let ((?x4012 (ite $x2709 305 304)))
 (let (($x3988 (>= ?x3103 ?x4012)))
 (let ((?x4013 (ite $x2709 335 334)))
 (let (($x3196 (>= ?x3103 ?x4013)))
 (let ((?x1555 (ite $x3196 (+ (- ?x3103 ?x4013) 1) (ite $x3988 (+ (- ?x3103 ?x4012) 1) ?x2163))))
 (let (($x1149 (= 40 0)))
 (let ((?x3923 (ite $x1149 ?x977 ?x1555)))
 (= x_plus_day ?x3923))))))))))))))))))))))))))))))))))))))))))))))))))))))))))))))))))))))))))))))))))))))))))))))))))))))))))))))))))))))))))
(assert
 (= y_epoch x_plus_epoch))
(assert
 (not (= y_epoch 8395)))
(check-sat)
